p cnf 12 30
5 7 -6 0
6 2 -5 0
3 -12 6 0
8 7 12 0
8 8 7 0
8 3 -7 0
-12 -5 -4 0
6 -7 -12 0
2 3 9 0
12 7 -1 0
9 -10 7 0
6 10 -1 0
-6 10 -1 0
4 -1 -3 0
4 12 5 0
-10 -8 -9 0
11 8 -11 0
4 2 3 0
-9 -9 -2 0
-1 -2 -5 0
5 5 4 0
4 8 4 0
8 8 -9 0
10 -2 -9 0
-8 12 -10 0
-4 9 11 0
-5 -10 3 0
-2 7 -9 0
-3 -1 -8 0
-7 -2 -3 0
